(declare-fun c () String)
(declare-fun g () String)
(declare-fun b () String)
(declare-fun d () String)
(declare-fun f () String)
(declare-fun h () String)
(assert (= (str.++ d "hhg" g "e") (str.++ b "h" b "ea")))
(assert (= "c" (str.++ "f" c "h" f h "f")))
(assert (= (str.++ "f" f) (str.++ h "b")))

(check-sat)
